% Paramètres d'entrée avec seulement
% point du départ et point d'arrivée

grilleIn = [|-11,-13,-4,     0, 0, 0,36
            | -6, -5,      0, 0, 0, 0, 0
            | -7,        0, 0, 0, 0, 0, 0
            |           0, 0, 0,-1, 0, 0, 0
            |            0, 0, 0, 0, 0,  0          , -8
            |              0, 0, 0, 1, 0            , -2, -9
            |                0, 0, 0, 0              ,-3,-12,-10|];
